
se = 80; % nombre de sessions
gr = 40; % nombre de grups de treball
cl = 12; % nombre de slots
minPapersPerSlot = 3; % minim nombre d'articles per sessio i slot
maxSesionsPar = 20; % maxim nombre de sessions paraleles

npMax = [6, 5, 5, 6, 4, 3, 3, 6, 6, 3, 4, 3]; % nombre maxim de papers per slot

np = [11, 3, 5, 7, 3, 11, 9, 9, 12, 10, 6, 12, 7, 18, 19, 9, 5, 5, 3, 7, 3, 14, 3, 14, 12, 17, 3, 15, 15, 14, 12, 19, 3, 3, 13, 5, 3, 3, 17, 14, 4, 9, 11, 14, 6, 11, 6, 7, 19, 3, 11, 16, 18, 12, 12, 10, 6, 11, 6, 17, 3, 11, 18, 8, 6, 3, 8, 6, 3, 7, 6, 14, 12, 14, 3, 15, 11, 3, 14, 9]; % nombre de papers acceptats a cada sessio

WG = [ {1}, {2}, {}, {}, {}, {}, {}, {}, {3,4}, {5,6,7}, {}, {8,9,10}, {11}, {12,13,14}, {15}, {}, {16,17}, {18}, {19}, {}, {20}, {21}, {22}, {23}, {24}, {25}, {26}, {27,28}, {29,30}, {31}, {32}, {}, {33,34,35}, {36,37}, {38,39}, {}, {40}, {1}, {}, {2}, {3}, {}, {}, {4}, {}, {5}, {6}, {7}, {8,9,10}, {11}, {12}, {13,14}, {}, {15}, {}, {16,17,18}, {19}, {20}, {21}, {}, {22}, {23}, {24}, {}, {25}, {}, {26,27}, {28}, {}, {29}, {30}, {31}, {32}, {33}, {}, {}, {}, {34,35}, {36}, {37} ]; % grups per sessio

